g3 0 1 0	# problem multiplants_stg1c
 477 270 1 0 132	# vars, constraints, objectives, ranges, eqns
 22 0	# nonlinear constraints, objectives
 0 0	# network constraints: nonlinear, linear
 33 0 0	# nonlinear vars in constraints, objectives, both
 0 0 0 1	# linear network variables; functions; arith, flags
 252 0 0 0 0	# discrete variables: binary, integer, nonlinear (b,c,o)
 1909 1	# nonzeros in Jacobian, gradients
 4 6	# max name lengths: constraints, variables
 0 0 0 0 0	# common exprs: b,c,o,c1,o1
b
0 0 5.4e5
0 0 5.4e5
0 0 5.4e5
0 0 5.4e5
0 0 5.4e5
0 0 5.4e5
0 0 5.4e5
0 0 3.6e5
0 0 3.6e5
0 0 3.6e5
0 0 3.6e5
0 0 3.6e5
0 0 3.6e5
0 0 3.6e5
0 0 6.6e5
0 0 6.6e5
0 0 6.6e5
0 0 6.6e5
0 0 6.6e5
0 0 6.6e5
0 0 6.6e5
0 0 5.4e5
0 0 7.2e5
0 0 6.6e5
4 0
0 0 600
0 0 600
0 0 600
0 0 600
0 0 600
0 0 600
0 200 600
3
0 0 4.8e5
0 0 4.8e5
0 0 4.8e5
0 0 4.8e5
0 0 4.8e5
0 0 4.8e5
0 0 4.8e5
0 0 2.4e5
0 0 2.4e5
0 0 2.4e5
0 0 2.4e5
0 0 2.4e5
0 0 2.4e5
0 0 2.4e5
0 0 5.4e5
0 0 5.4e5
0 0 5.4e5
0 0 5.4e5
0 0 5.4e5
0 0 5.4e5
0 0 5.4e5
0 0 2.4e5
0 0 2.4e5
0 0 2.4e5
0 0 2.4e5
0 0 2.4e5
0 0 2.4e5
0 0 2.4e5
0 0 7.2e5
0 0 7.2e5
0 0 7.2e5
0 0 7.2e5
0 0 7.2e5
0 0 7.2e5
0 0 7.2e5
0 0 3e5
0 0 3e5
0 0 3e5
0 0 3e5
0 0 3e5
0 0 3e5
0 0 3e5
0 0 3.6e5
0 0 3.6e5
0 0 3.6e5
0 0 3.6e5
0 0 3.6e5
0 0 3.6e5
0 0 3.6e5
0 0 3e5
0 0 3e5
0 0 3e5
0 0 3e5
0 0 3e5
0 0 3e5
0 0 3e5
0 0 6e5
0 0 6e5
0 0 6e5
0 0 6e5
0 0 6e5
0 0 6e5
0 0 6e5
0 0 2.7e5
0 0 2.7e5
0 0 2.7e5
0 0 2.7e5
0 0 2.7e5
0 0 2.7e5
0 0 2.7e5
0 0 6.6e5
0 0 6.6e5
0 0 6.6e5
0 0 6.6e5
0 0 6.6e5
0 0 6.6e5
0 0 6.6e5
0 0 2.7e5
0 0 2.7e5
0 0 2.7e5
0 0 2.7e5
0 0 2.7e5
0 0 2.7e5
0 0 2.7e5
4 0
4 0
4 0
4 0
4 0
4 0
4 0
4 0
4 0
4 0
4 0
4 0
4 0
4 0
4 0
4 0
4 0
4 0
4 0
4 0
4 0
4 0
4 0
4 0
4 0
4 0
4 0
4 0
4 0
4 0
4 0
4 0
4 0
4 0
4 0
4 0
4 0
4 0
4 0
4 0
4 0
4 0
4 0
4 0
4 0
4 0
4 0
4 0
4 0
4 0
4 0
4 0
4 0
4 0
4 0
4 0
4 0
4 0
4 0
4 0
4 0
4 0
4 0
4 0
4 0
4 0
4 0
4 0
4 0
4 0
4 0
4 0
4 0
4 0
4 0
4 0
4 0
4 0
4 0
4 0
4 0
4 0
4 0
4 0
0 0 4.8e5
0 0 4.8e5
0 0 4.8e5
0 0 4.8e5
0 0 4.8e5
0 0 4.8e5
0 0 4.8e5
0 0 7.2e5
0 0 7.2e5
0 0 7.2e5
0 0 7.2e5
0 0 7.2e5
0 0 7.2e5
0 0 7.2e5
0 0 6e5
0 0 6e5
0 0 6e5
0 0 6e5
0 0 6e5
0 0 6e5
0 0 6e5
0 0 4.8e5
0 0 7.2e5
0 0 6e5
0 0 1
0 0 1
0 0 1
0 0 1
0 0 1
0 0 1
0 0 1
0 0 1
0 0 1
0 0 1
0 0 1
0 0 1
0 0 1
0 0 1
0 0 1
0 0 1
0 0 1
0 0 1
0 0 1
0 0 1
0 0 1
0 0 1
0 0 1
0 0 1
0 0 1
0 0 1
0 0 1
0 0 1
0 0 1
0 0 1
0 0 1
0 0 1
0 0 1
0 0 1
0 0 1
0 0 1
0 0 1
0 0 1
0 0 1
0 0 1
0 0 1
0 0 1
0 0 1
0 0 1
0 0 1
0 0 1
0 0 1
0 0 1
0 0 1
0 0 1
0 0 1
0 0 1
0 0 1
0 0 1
0 0 1
0 0 1
0 0 1
0 0 1
0 0 1
0 0 1
0 0 1
0 0 1
0 0 1
0 0 1
0 0 1
0 0 1
0 0 1
0 0 1
0 0 1
0 0 1
0 0 1
0 0 1
0 0 1
0 0 1
0 0 1
0 0 1
0 0 1
0 0 1
0 0 1
0 0 1
0 0 1
0 0 1
0 0 1
0 0 1
0 0 1
0 0 1
0 0 1
0 0 1
0 0 1
0 0 1
0 0 1
0 0 1
0 0 1
0 0 1
0 0 1
0 0 1
0 0 1
0 0 1
0 0 1
0 0 1
0 0 1
0 0 1
0 0 1
0 0 1
0 0 1
0 0 1
0 0 1
0 0 1
0 0 1
0 0 1
0 0 1
0 0 1
0 0 1
0 0 1
0 0 1
0 0 1
0 0 1
0 0 1
0 0 1
0 0 1
0 0 1
0 0 1
0 0 1
0 0 1
0 0 1
0 0 1
0 0 1
0 0 1
0 0 1
0 0 1
0 0 1
0 0 1
0 0 1
0 0 1
0 0 1
0 0 1
0 0 1
0 0 1
0 0 1
0 0 1
0 0 1
0 0 1
0 0 1
0 0 1
0 0 1
0 0 1
0 0 1
0 0 1
0 0 1
0 0 1
0 0 1
0 0 1
0 0 1
0 0 1
0 0 1
0 0 1
0 0 1
0 0 1
0 0 1
0 0 1
0 0 1
0 0 1
0 0 1
0 0 1
0 0 1
0 0 1
0 0 1
0 0 1
0 0 1
0 0 1
0 0 1
0 0 1
0 0 1
0 0 1
0 0 1
0 0 1
0 0 1
0 0 1
0 0 1
0 0 1
0 0 1
0 0 1
0 0 1
0 0 1
0 0 1
0 0 1
0 0 1
0 0 1
0 0 1
0 0 1
0 0 1
0 0 1
0 0 1
0 0 1
0 0 1
0 0 1
0 0 1
0 0 1
0 0 1
0 0 1
0 0 1
0 0 1
0 0 1
0 0 1
0 0 1
0 0 1
0 0 1
0 0 1
0 0 1
0 0 1
0 0 1
0 0 1
0 0 1
0 0 1
0 0 1
0 0 1
0 0 1
0 0 1
0 0 1
0 0 1
0 0 1
0 0 1
0 0 1
0 0 1
0 0 1
0 0 1
0 0 1
0 0 1
0 0 1
0 0 1
0 0 1
0 0 1
0 0 1
0 0 1
0 0 1
0 0 1
0 0 1
0 0 1
0 0 1
0 0 1
0 0 1
0 0 1
0 0 1
0 0 1
0 0 1
0 0 1
0 0 1
0 0 1
0 0 1
0 0 1
0 0 1
0 0 1
x1
31 200
r
4 0
4 0
4 0
4 0
4 0
4 0
4 0
4 0
4 0
4 0
4 0
4 0
4 0
4 0
4 0
4 0
4 0
4 0
4 0
4 0
4 0
4 0
4 0
4 0
4 0
4 0
4 0
4 0
4 0
4 0
4 0
4 0
4 0
4 0
4 0
4 0
4 0
4 0
4 0
4 0
4 0
4 0
4 0
4 0
4 0
4 0
4 0
4 0
4 0
4 0
4 0
4 0
4 0
4 0
4 0
4 0
4 0
4 0
4 0
4 0
4 0
4 0
4 0
4 0
4 0
4 0
4 0
4 0
4 0
4 0
4 0
4 0
4 0
4 0
4 0
4 0
4 0
4 0
4 0
4 0
4 0
4 0
4 0
4 0
4 0
4 0
4 0
4 0
4 0
4 0
4 0
4 0
4 0
4 0
4 0
4 0
4 0
4 0
4 0
4 0
4 0
4 0
4 0
4 0
4 0
4 0
4 0
4 0
4 0
4 0
4 0
4 0
4 0
4 0
4 0
4 0
4 0
4 0
4 0
4 0
4 0
4 0
4 0
4 0
4 0
4 0
4 0
4 1
4 1
4 1
4 1
2 0
2 0
2 0
2 0
2 0
2 0
2 0
2 0
2 0
2 0
2 0
2 0
2 0
2 0
2 0
2 0
2 0
2 0
2 0
2 0
2 0
2 0
2 0
2 0
2 0
2 0
2 0
2 0
1 0
1 0
1 0
1 0
1 0
1 0
1 0
1 0
1 0
1 0
1 0
1 0
1 0
1 0
1 0
1 0
1 0
1 0
1 0
1 0
1 0
1 0
1 0
1 0
1 0
1 0
1 0
1 0
1 0
1 0
1 0
1 0
1 0
1 0
1 0
1 0
1 0
1 0
1 0
1 0
1 0
1 0
1 0
1 0
1 0
1 0
1 0
1 0
1 0
1 0
1 0
1 0
1 0
1 0
1 0
1 0
1 0
1 0
1 0
1 0
1 0
1 0
1 0
1 0
1 0
1 0
1 0
1 0
1 0
1 0
1 0
1 0
1 0
1 0
1 0
1 0
1 0
1 0
1 0
1 0
1 0
1 0
1 0
1 0
2 0
2 0
2 0
1 0
1 0
1 0
1 0
1 0
1 0
1 0
1 0
1 0
1 0
1 0
1 0
1 0
1 0
1 0
1 0
1 0
1 0
1 0
1 0
1 0
1 3
1 3
4 1
C0
o54
22
o2
v32
v31
o2
o0
o2
n2.03e-3
v0
o2
n2.03e-3
v1
o1
v25
v24
o2
o0
o2
n2.03e-3
v1
o2
n2.03e-3
v2
o1
v26
v25
o2
o0
o2
n2.03e-3
v2
o2
n2.03e-3
v3
o1
v27
v26
o2
o0
o2
n2.03e-3
v3
o2
n2.03e-3
v4
o1
v28
v27
o2
o0
o2
n2.03e-3
v4
o2
n2.03e-3
v5
o1
v29
v28
o2
o0
o2
n2.03e-3
v5
o2
n2.03e-3
v6
o1
v30
v29
o2
o0
o2
n2.03e-3
v0
o2
n2.03e-3
v6
o1
v31
v30
o2
o0
o2
n2.03e-3
v7
o2
n2.03e-3
v8
o1
v25
v24
o2
o0
o2
n2.03e-3
v8
o2
n2.03e-3
v9
o1
v26
v25
o2
o0
o2
n2.03e-3
v9
o2
n2.03e-3
v10
o1
v27
v26
o2
o0
o2
n2.03e-3
v10
o2
n2.03e-3
v11
o1
v28
v27
o2
o0
o2
n2.03e-3
v11
o2
n2.03e-3
v12
o1
v29
v28
o2
o0
o2
n2.03e-3
v12
o2
n2.03e-3
v13
o1
v30
v29
o2
o0
o2
n2.03e-3
v7
o2
n2.03e-3
v13
o1
v31
v30
o2
o0
o2
n2.03e-3
v14
o2
n2.03e-3
v15
o1
v25
v24
o2
o0
o2
n2.03e-3
v15
o2
n2.03e-3
v16
o1
v26
v25
o2
o0
o2
n2.03e-3
v16
o2
n2.03e-3
v17
o1
v27
v26
o2
o0
o2
n2.03e-3
v17
o2
n2.03e-3
v18
o1
v28
v27
o2
o0
o2
n2.03e-3
v18
o2
n2.03e-3
v19
o1
v29
v28
o2
o0
o2
n2.03e-3
v19
o2
n2.03e-3
v20
o1
v30
v29
o2
o0
o2
n2.03e-3
v14
o2
n2.03e-3
v20
o1
v31
v30
C1
o2
o3
v21
v31
o1
v31
v30
C2
o2
o3
v21
v31
o1
v25
v24
C3
o2
o3
v21
v31
o1
v26
v25
C4
o2
o3
v21
v31
o1
v27
v26
C5
o2
o3
v21
v31
o1
v28
v27
C6
o2
o3
v21
v31
o1
v29
v28
C7
o2
o3
v21
v31
o1
v30
v29
C8
o2
o3
v22
v31
o1
v31
v30
C9
o2
o3
v22
v31
o1
v25
v24
C10
o2
o3
v22
v31
o1
v26
v25
C11
o2
o3
v22
v31
o1
v27
v26
C12
o2
o3
v22
v31
o1
v28
v27
C13
o2
o3
v22
v31
o1
v29
v28
C14
o2
o3
v22
v31
o1
v30
v29
C15
o2
o3
v23
v31
o1
v31
v30
C16
o2
o3
v23
v31
o1
v25
v24
C17
o2
o3
v23
v31
o1
v26
v25
C18
o2
o3
v23
v31
o1
v27
v26
C19
o2
o3
v23
v31
o1
v28
v27
C20
o2
o3
v23
v31
o1
v29
v28
C21
o2
o3
v23
v31
o1
v30
v29
C22
n0
C23
n0
C24
n0
C25
n0
C26
n0
C27
n0
C28
n0
C29
n0
C30
n0
C31
n0
C32
n0
C33
n0
C34
n0
C35
n0
C36
n0
C37
n0
C38
n0
C39
n0
C40
n0
C41
n0
C42
n0
C43
n0
C44
n0
C45
n0
C46
n0
C47
n0
C48
n0
C49
n0
C50
n0
C51
n0
C52
n0
C53
n0
C54
n0
C55
n0
C56
n0
C57
n0
C58
n0
C59
n0
C60
n0
C61
n0
C62
n0
C63
n0
C64
n0
C65
n0
C66
n0
C67
n0
C68
n0
C69
n0
C70
n0
C71
n0
C72
n0
C73
n0
C74
n0
C75
n0
C76
n0
C77
n0
C78
n0
C79
n0
C80
n0
C81
n0
C82
n0
C83
n0
C84
n0
C85
n0
C86
n0
C87
n0
C88
n0
C89
n0
C90
n0
C91
n0
C92
n0
C93
n0
C94
n0
C95
n0
C96
n0
C97
n0
C98
n0
C99
n0
C100
n0
C101
n0
C102
n0
C103
n0
C104
n0
C105
n0
C106
n0
C107
n0
C108
n0
C109
n0
C110
n0
C111
n0
C112
n0
C113
n0
C114
n0
C115
n0
C116
n0
C117
n0
C118
n0
C119
n0
C120
n0
C121
n0
C122
n0
C123
n0
C124
n0
C125
n0
C126
n0
C127
n0
C128
n0
C129
n0
C130
n0
C131
n0
C132
n0
C133
n0
C134
n0
C135
n0
C136
n0
C137
n0
C138
n0
C139
n0
C140
n0
C141
n0
C142
n0
C143
n0
C144
n0
C145
n0
C146
n0
C147
n0
C148
n0
C149
n0
C150
n0
C151
n0
C152
n0
C153
n0
C154
n0
C155
n0
C156
n0
C157
n0
C158
n0
C159
n0
C160
n0
C161
n0
C162
n0
C163
n0
C164
n0
C165
n0
C166
n0
C167
n0
C168
n0
C169
n0
C170
n0
C171
n0
C172
n0
C173
n0
C174
n0
C175
n0
C176
n0
C177
n0
C178
n0
C179
n0
C180
n0
C181
n0
C182
n0
C183
n0
C184
n0
C185
n0
C186
n0
C187
n0
C188
n0
C189
n0
C190
n0
C191
n0
C192
n0
C193
n0
C194
n0
C195
n0
C196
n0
C197
n0
C198
n0
C199
n0
C200
n0
C201
n0
C202
n0
C203
n0
C204
n0
C205
n0
C206
n0
C207
n0
C208
n0
C209
n0
C210
n0
C211
n0
C212
n0
C213
n0
C214
n0
C215
n0
C216
n0
C217
n0
C218
n0
C219
n0
C220
n0
C221
n0
C222
n0
C223
n0
C224
n0
C225
n0
C226
n0
C227
n0
C228
n0
C229
n0
C230
n0
C231
n0
C232
n0
C233
n0
C234
n0
C235
n0
C236
n0
C237
n0
C238
n0
C239
n0
C240
n0
C241
n0
C242
n0
C243
n0
C244
n0
C245
n0
C246
n0
C247
n0
C248
n0
C249
n0
C250
n0
C251
n0
C252
n0
C253
n0
C254
n0
C255
n0
C256
n0
C257
n0
C258
n0
C259
n0
C260
n0
C261
n0
C262
n0
C263
n0
C264
n0
C265
n0
C266
n0
C267
n0
C268
n0
C269
n0
O0 1
n0
k476
3
6
9
12
15
18
21
24
27
30
33
36
39
42
45
48
51
54
57
60
63
72
81
90
98
113
128
143
158
173
188
217
218
221
224
227
230
233
236
239
242
245
248
251
254
257
260
264
268
272
276
280
284
288
292
296
300
304
308
312
316
319
322
325
328
331
334
337
340
343
346
349
352
355
358
362
366
370
374
378
382
386
390
394
398
402
406
410
414
417
420
423
426
429
432
435
438
441
444
447
450
453
456
460
464
468
472
476
480
484
488
492
496
500
504
508
512
515
517
519
521
523
525
527
530
532
534
536
538
540
542
545
547
549
551
553
555
557
560
562
564
566
568
570
572
575
577
579
581
583
585
587
590
592
594
596
598
600
602
605
607
609
611
613
615
617
620
622
624
626
628
630
632
635
637
639
641
643
645
647
650
652
654
656
658
660
662
665
667
669
671
673
675
677
680
682
684
686
688
690
692
695
698
701
704
707
710
713
716
719
722
725
728
731
734
737
740
743
746
749
752
755
763
771
779
784
787
790
793
796
799
802
807
810
813
816
819
822
825
829
832
835
838
841
844
847
851
854
857
860
863
866
869
873
876
879
882
885
888
891
895
898
901
904
907
910
913
917
920
923
926
929
932
935
939
942
945
948
951
954
957
961
964
967
970
973
976
979
983
986
989
992
995
998
1001
1005
1008
1011
1014
1017
1020
1023
1027
1030
1033
1036
1039
1042
1045
1051
1056
1061
1066
1071
1076
1081
1087
1092
1097
1102
1107
1112
1117
1123
1128
1133
1138
1143
1148
1153
1159
1164
1169
1174
1179
1184
1189
1195
1200
1205
1210
1215
1220
1225
1231
1236
1241
1246
1251
1256
1261
1267
1272
1277
1282
1287
1292
1297
1303
1308
1313
1318
1323
1328
1333
1339
1344
1349
1354
1359
1364
1369
1375
1380
1385
1390
1395
1400
1405
1411
1416
1421
1426
1431
1436
1441
1447
1452
1457
1462
1467
1472
1477
1483
1488
1493
1498
1503
1508
1513
1519
1524
1529
1534
1539
1544
1549
1555
1560
1565
1570
1575
1580
1585
1591
1596
1601
1606
1611
1616
1621
1627
1632
1637
1642
1647
1652
1657
1663
1668
1673
1678
1683
1688
1693
1699
1704
1709
1714
1719
1724
1729
1735
1740
1745
1750
1755
1760
1765
1771
1776
1781
1786
1791
1796
1801
1807
1812
1817
1822
1827
1832
1837
1843
1848
1853
1858
1863
1868
1873
1879
1884
1889
1894
1899
1904
J0 204
0 0
1 0
2 0
3 0
4 0
5 0
6 0
7 0
8 0
9 0
10 0
11 0
12 0
13 0
14 0
15 0
16 0
17 0
18 0
19 0
20 0
21 -.15
22 -.4
23 -.65
24 0
25 0
26 0
27 0
28 0
29 0
30 0
31 0
32 0
222 .1406
223 .1406
224 .1406
309 3.8e3
310 3.8e3
311 3.8e3
312 3.8e3
313 3.8e3
314 3.8e3
315 3.8e3
316 6.08e3
317 6.08e3
318 6.08e3
319 6.08e3
320 6.08e3
321 6.08e3
322 6.08e3
323 7.5e3
324 7.5e3
325 7.5e3
326 7.5e3
327 7.5e3
328 7.5e3
329 7.5e3
330 2.25e3
331 2.25e3
332 2.25e3
333 2.25e3
334 2.25e3
335 2.25e3
336 2.25e3
337 3.08e3
338 3.08e3
339 3.08e3
340 3.08e3
341 3.08e3
342 3.08e3
343 3.08e3
344 5.39e3
345 5.39e3
346 5.39e3
347 5.39e3
348 5.39e3
349 5.39e3
350 5.39e3
351 6.84e3
352 6.84e3
353 6.84e3
354 6.84e3
355 6.84e3
356 6.84e3
357 6.84e3
358 8.36e3
359 8.36e3
360 8.36e3
361 8.36e3
362 8.36e3
363 8.36e3
364 8.36e3
365 3.75e3
366 3.75e3
367 3.75e3
368 3.75e3
369 3.75e3
370 3.75e3
371 3.75e3
372 5.25e3
373 5.25e3
374 5.25e3
375 5.25e3
376 5.25e3
377 5.25e3
378 5.25e3
379 4.62e3
380 4.62e3
381 4.62e3
382 4.62e3
383 4.62e3
384 4.62e3
385 4.62e3
386 3.08e3
387 3.08e3
388 3.08e3
389 3.08e3
390 3.08e3
391 3.08e3
392 3.08e3
393 8.36e3
394 8.36e3
395 8.36e3
396 8.36e3
397 8.36e3
398 8.36e3
399 8.36e3
400 7.6e2
401 7.6e2
402 7.6e2
403 7.6e2
404 7.6e2
405 7.6e2
406 7.6e2
407 1.5e3
408 1.5e3
409 1.5e3
410 1.5e3
411 1.5e3
412 1.5e3
413 1.5e3
414 3.75e3
415 3.75e3
416 3.75e3
417 3.75e3
418 3.75e3
419 3.75e3
420 3.75e3
421 4.62e3
422 4.62e3
423 4.62e3
424 4.62e3
425 4.62e3
426 4.62e3
427 4.62e3
428 7.7e2
429 7.7e2
430 7.7e2
431 7.7e2
432 7.7e2
433 7.7e2
434 7.7e2
435 6.84e3
436 6.84e3
437 6.84e3
438 6.84e3
439 6.84e3
440 6.84e3
441 6.84e3
442 8.36e3
443 8.36e3
444 8.36e3
445 8.36e3
446 8.36e3
447 8.36e3
448 8.36e3
449 3.75e3
450 3.75e3
451 3.75e3
452 3.75e3
453 3.75e3
454 3.75e3
455 3.75e3
456 5.25e3
457 5.25e3
458 5.25e3
459 5.25e3
460 5.25e3
461 5.25e3
462 5.25e3
463 4.62e3
464 4.62e3
465 4.62e3
466 4.62e3
467 4.62e3
468 4.62e3
469 4.62e3
470 3.08e3
471 3.08e3
472 3.08e3
473 3.08e3
474 3.08e3
475 3.08e3
476 3.08e3
J1 7
0 1
6 -1
21 0
30 0
31 0
53 -1
60 -1
J2 8
0 -1
1 1
21 0
24 0
25 0
31 0
47 -1
54 -1
J3 8
1 -1
2 1
21 0
25 0
26 0
31 0
48 -1
55 -1
J4 8
2 -1
3 1
21 0
26 0
27 0
31 0
49 -1
56 -1
J5 8
3 -1
4 1
21 0
27 0
28 0
31 0
50 -1
57 -1
J6 8
4 -1
5 1
21 0
28 0
29 0
31 0
51 -1
58 -1
J7 8
5 -1
6 1
21 0
29 0
30 0
31 0
52 -1
59 -1
J8 7
7 1
13 -1
22 0
30 0
31 0
81 -1
88 -1
J9 8
7 -1
8 1
22 0
24 0
25 0
31 0
75 -1
82 -1
J10 8
8 -1
9 1
22 0
25 0
26 0
31 0
76 -1
83 -1
J11 8
9 -1
10 1
22 0
26 0
27 0
31 0
77 -1
84 -1
J12 8
10 -1
11 1
22 0
27 0
28 0
31 0
78 -1
85 -1
J13 8
11 -1
12 1
22 0
28 0
29 0
31 0
79 -1
86 -1
J14 8
12 -1
13 1
22 0
29 0
30 0
31 0
80 -1
87 -1
J15 7
14 1
20 -1
23 0
30 0
31 0
109 -1
116 -1
J16 8
14 -1
15 1
23 0
24 0
25 0
31 0
103 -1
110 -1
J17 8
15 -1
16 1
23 0
25 0
26 0
31 0
104 -1
111 -1
J18 8
16 -1
17 1
23 0
26 0
27 0
31 0
105 -1
112 -1
J19 8
17 -1
18 1
23 0
27 0
28 0
31 0
106 -1
113 -1
J20 8
18 -1
19 1
23 0
28 0
29 0
31 0
107 -1
114 -1
J21 8
19 -1
20 1
23 0
29 0
30 0
31 0
108 -1
115 -1
J22 8
117 1
123 -1
225 1
231 -1
309 1
316 1
329 -1
343 -1
J23 8
117 -1
118 1
225 -1
226 1
310 1
317 1
323 -1
337 -1
J24 8
118 -1
119 1
226 -1
227 1
311 1
318 1
324 -1
338 -1
J25 8
119 -1
120 1
227 -1
228 1
312 1
319 1
325 -1
339 -1
J26 8
120 -1
121 1
228 -1
229 1
313 1
320 1
326 -1
340 -1
J27 8
121 -1
122 1
229 -1
230 1
314 1
321 1
327 -1
341 -1
J28 8
122 -1
123 1
230 -1
231 1
315 1
322 1
328 -1
342 -1
J29 8
124 1
130 -1
253 1
259 -1
315 -1
323 1
330 1
350 -1
J30 8
124 -1
125 1
253 -1
254 1
309 -1
324 1
331 1
344 -1
J31 8
125 -1
126 1
254 -1
255 1
310 -1
325 1
332 1
345 -1
J32 8
126 -1
127 1
255 -1
256 1
311 -1
326 1
333 1
346 -1
J33 8
127 -1
128 1
256 -1
257 1
312 -1
327 1
334 1
347 -1
J34 8
128 -1
129 1
257 -1
258 1
313 -1
328 1
335 1
348 -1
J35 8
129 -1
130 1
258 -1
259 1
314 -1
329 1
336 1
349 -1
J36 8
131 1
137 -1
281 1
287 -1
322 -1
336 -1
337 1
344 1
J37 8
131 -1
132 1
281 -1
282 1
316 -1
330 -1
338 1
345 1
J38 8
132 -1
133 1
282 -1
283 1
317 -1
331 -1
339 1
346 1
J39 8
133 -1
134 1
283 -1
284 1
318 -1
332 -1
340 1
347 1
J40 8
134 -1
135 1
284 -1
285 1
319 -1
333 -1
341 1
348 1
J41 8
135 -1
136 1
285 -1
286 1
320 -1
334 -1
342 1
349 1
J42 8
136 -1
137 1
286 -1
287 1
321 -1
335 -1
343 1
350 1
J43 8
138 1
144 -1
232 1
238 -1
351 1
358 1
371 -1
385 -1
J44 8
138 -1
139 1
232 -1
233 1
352 1
359 1
365 -1
379 -1
J45 8
139 -1
140 1
233 -1
234 1
353 1
360 1
366 -1
380 -1
J46 8
140 -1
141 1
234 -1
235 1
354 1
361 1
367 -1
381 -1
J47 8
141 -1
142 1
235 -1
236 1
355 1
362 1
368 -1
382 -1
J48 8
142 -1
143 1
236 -1
237 1
356 1
363 1
369 -1
383 -1
J49 8
143 -1
144 1
237 -1
238 1
357 1
364 1
370 -1
384 -1
J50 8
145 1
151 -1
260 1
266 -1
357 -1
365 1
372 1
392 -1
J51 8
145 -1
146 1
260 -1
261 1
351 -1
366 1
373 1
386 -1
J52 8
146 -1
147 1
261 -1
262 1
352 -1
367 1
374 1
387 -1
J53 8
147 -1
148 1
262 -1
263 1
353 -1
368 1
375 1
388 -1
J54 8
148 -1
149 1
263 -1
264 1
354 -1
369 1
376 1
389 -1
J55 8
149 -1
150 1
264 -1
265 1
355 -1
370 1
377 1
390 -1
J56 8
150 -1
151 1
265 -1
266 1
356 -1
371 1
378 1
391 -1
J57 8
152 1
158 -1
288 1
294 -1
364 -1
378 -1
379 1
386 1
J58 8
152 -1
153 1
288 -1
289 1
358 -1
372 -1
380 1
387 1
J59 8
153 -1
154 1
289 -1
290 1
359 -1
373 -1
381 1
388 1
J60 8
154 -1
155 1
290 -1
291 1
360 -1
374 -1
382 1
389 1
J61 8
155 -1
156 1
291 -1
292 1
361 -1
375 -1
383 1
390 1
J62 8
156 -1
157 1
292 -1
293 1
362 -1
376 -1
384 1
391 1
J63 8
157 -1
158 1
293 -1
294 1
363 -1
377 -1
385 1
392 1
J64 8
159 1
165 -1
239 1
245 -1
393 1
400 1
413 -1
427 -1
J65 8
159 -1
160 1
239 -1
240 1
394 1
401 1
407 -1
421 -1
J66 8
160 -1
161 1
240 -1
241 1
395 1
402 1
408 -1
422 -1
J67 8
161 -1
162 1
241 -1
242 1
396 1
403 1
409 -1
423 -1
J68 8
162 -1
163 1
242 -1
243 1
397 1
404 1
410 -1
424 -1
J69 8
163 -1
164 1
243 -1
244 1
398 1
405 1
411 -1
425 -1
J70 8
164 -1
165 1
244 -1
245 1
399 1
406 1
412 -1
426 -1
J71 8
166 1
172 -1
267 1
273 -1
399 -1
407 1
414 1
434 -1
J72 8
166 -1
167 1
267 -1
268 1
393 -1
408 1
415 1
428 -1
J73 8
167 -1
168 1
268 -1
269 1
394 -1
409 1
416 1
429 -1
J74 8
168 -1
169 1
269 -1
270 1
395 -1
410 1
417 1
430 -1
J75 8
169 -1
170 1
270 -1
271 1
396 -1
411 1
418 1
431 -1
J76 8
170 -1
171 1
271 -1
272 1
397 -1
412 1
419 1
432 -1
J77 8
171 -1
172 1
272 -1
273 1
398 -1
413 1
420 1
433 -1
J78 8
173 1
179 -1
295 1
301 -1
406 -1
420 -1
421 1
428 1
J79 8
173 -1
174 1
295 -1
296 1
400 -1
414 -1
422 1
429 1
J80 8
174 -1
175 1
296 -1
297 1
401 -1
415 -1
423 1
430 1
J81 8
175 -1
176 1
297 -1
298 1
402 -1
416 -1
424 1
431 1
J82 8
176 -1
177 1
298 -1
299 1
403 -1
417 -1
425 1
432 1
J83 8
177 -1
178 1
299 -1
300 1
404 -1
418 -1
426 1
433 1
J84 8
178 -1
179 1
300 -1
301 1
405 -1
419 -1
427 1
434 1
J85 8
180 1
186 -1
246 1
252 -1
435 1
442 1
455 -1
469 -1
J86 8
180 -1
181 1
246 -1
247 1
436 1
443 1
449 -1
463 -1
J87 8
181 -1
182 1
247 -1
248 1
437 1
444 1
450 -1
464 -1
J88 8
182 -1
183 1
248 -1
249 1
438 1
445 1
451 -1
465 -1
J89 8
183 -1
184 1
249 -1
250 1
439 1
446 1
452 -1
466 -1
J90 8
184 -1
185 1
250 -1
251 1
440 1
447 1
453 -1
467 -1
J91 8
185 -1
186 1
251 -1
252 1
441 1
448 1
454 -1
468 -1
J92 8
187 1
193 -1
274 1
280 -1
441 -1
449 1
456 1
476 -1
J93 8
187 -1
188 1
274 -1
275 1
435 -1
450 1
457 1
470 -1
J94 8
188 -1
189 1
275 -1
276 1
436 -1
451 1
458 1
471 -1
J95 8
189 -1
190 1
276 -1
277 1
437 -1
452 1
459 1
472 -1
J96 8
190 -1
191 1
277 -1
278 1
438 -1
453 1
460 1
473 -1
J97 8
191 -1
192 1
278 -1
279 1
439 -1
454 1
461 1
474 -1
J98 8
192 -1
193 1
279 -1
280 1
440 -1
455 1
462 1
475 -1
J99 8
194 1
200 -1
302 1
308 -1
448 -1
462 -1
463 1
470 1
J100 8
194 -1
195 1
302 -1
303 1
442 -1
456 -1
464 1
471 1
J101 8
195 -1
196 1
303 -1
304 1
443 -1
457 -1
465 1
472 1
J102 8
196 -1
197 1
304 -1
305 1
444 -1
458 -1
466 1
473 1
J103 8
197 -1
198 1
305 -1
306 1
445 -1
459 -1
467 1
474 1
J104 8
198 -1
199 1
306 -1
307 1
446 -1
460 -1
468 1
475 1
J105 8
199 -1
200 1
307 -1
308 1
447 -1
461 -1
469 1
476 1
J106 6
39 -1
46 -1
53 1
60 1
201 1
207 -1
J107 6
33 -1
40 -1
47 1
54 1
201 -1
202 1
J108 6
34 -1
41 -1
48 1
55 1
202 -1
203 1
J109 6
35 -1
42 -1
49 1
56 1
203 -1
204 1
J110 6
36 -1
43 -1
50 1
57 1
204 -1
205 1
J111 6
37 -1
44 -1
51 1
58 1
205 -1
206 1
J112 6
38 -1
45 -1
52 1
59 1
206 -1
207 1
J113 6
67 -1
74 -1
81 1
88 1
208 1
214 -1
J114 6
61 -1
68 -1
75 1
82 1
208 -1
209 1
J115 6
62 -1
69 -1
76 1
83 1
209 -1
210 1
J116 6
63 -1
70 -1
77 1
84 1
210 -1
211 1
J117 6
64 -1
71 -1
78 1
85 1
211 -1
212 1
J118 6
65 -1
72 -1
79 1
86 1
212 -1
213 1
J119 6
66 -1
73 -1
80 1
87 1
213 -1
214 1
J120 6
95 -1
102 -1
109 1
116 1
215 1
221 -1
J121 6
89 -1
96 -1
103 1
110 1
215 -1
216 1
J122 6
90 -1
97 -1
104 1
111 1
216 -1
217 1
J123 6
91 -1
98 -1
105 1
112 1
217 -1
218 1
J124 6
92 -1
99 -1
106 1
113 1
218 -1
219 1
J125 6
93 -1
100 -1
107 1
114 1
219 -1
220 1
J126 6
94 -1
101 -1
108 1
115 1
220 -1
221 1
J127 12
117 1
124 1
131 1
225 1
253 1
281 1
309 1
316 1
323 1
330 1
337 1
344 1
J128 12
138 1
145 1
152 1
232 1
260 1
288 1
351 1
358 1
365 1
372 1
379 1
386 1
J129 12
159 1
166 1
173 1
239 1
267 1
295 1
393 1
400 1
407 1
414 1
421 1
428 1
J130 12
180 1
187 1
194 1
246 1
274 1
302 1
435 1
442 1
449 1
456 1
463 1
470 1
J131 11
24 -1
25 1
33 -1.25e-3
61 -8.33333333333333e-4
89 -1e-3
309 -5
316 -8
323 -10
330 -3
337 -4
344 -7
J132 11
25 -1
26 1
34 -1.25e-3
62 -8.33333333333333e-4
90 -1e-3
310 -5
317 -8
324 -10
331 -3
338 -4
345 -7
J133 11
26 -1
27 1
35 -1.25e-3
63 -8.33333333333333e-4
91 -1e-3
311 -5
318 -8
325 -10
332 -3
339 -4
346 -7
J134 11
27 -1
28 1
36 -1.25e-3
64 -8.33333333333333e-4
92 -1e-3
312 -5
319 -8
326 -10
333 -3
340 -4
347 -7
J135 11
28 -1
29 1
37 -1.25e-3
65 -8.33333333333333e-4
93 -1e-3
313 -5
320 -8
327 -10
334 -3
341 -4
348 -7
J136 11
29 -1
30 1
38 -1.25e-3
66 -8.33333333333333e-4
94 -1e-3
314 -5
321 -8
328 -10
335 -3
342 -4
349 -7
J137 11
30 -1
31 1
39 -1.25e-3
67 -8.33333333333333e-4
95 -1e-3
315 -5
322 -8
329 -10
336 -3
343 -4
350 -7
J138 11
24 -1
25 1
40 -2.5e-3
68 -2e-3
96 -2.22222222222222e-3
351 -9
358 -11
365 -5
372 -7
379 -6
386 -4
J139 11
25 -1
26 1
41 -2.5e-3
69 -2e-3
97 -2.22222222222222e-3
352 -9
359 -11
366 -5
373 -7
380 -6
387 -4
J140 11
26 -1
27 1
42 -2.5e-3
70 -2e-3
98 -2.22222222222222e-3
353 -9
360 -11
367 -5
374 -7
381 -6
388 -4
J141 11
27 -1
28 1
43 -2.5e-3
71 -2e-3
99 -2.22222222222222e-3
354 -9
361 -11
368 -5
375 -7
382 -6
389 -4
J142 11
28 -1
29 1
44 -2.5e-3
72 -2e-3
100 -2.22222222222222e-3
355 -9
362 -11
369 -5
376 -7
383 -6
390 -4
J143 11
29 -1
30 1
45 -2.5e-3
73 -2e-3
101 -2.22222222222222e-3
356 -9
363 -11
370 -5
377 -7
384 -6
391 -4
J144 11
30 -1
31 1
46 -2.5e-3
74 -2e-3
102 -2.22222222222222e-3
357 -9
364 -11
371 -5
378 -7
385 -6
392 -4
J145 11
24 -1
25 1
47 -1.11111111111111e-3
75 -1.66666666666667e-3
103 -9.09090909090909e-4
393 -11
400 -1
407 -2
414 -5
421 -6
428 -1
J146 11
25 -1
26 1
48 -1.11111111111111e-3
76 -1.66666666666667e-3
104 -9.09090909090909e-4
394 -11
401 -1
408 -2
415 -5
422 -6
429 -1
J147 11
26 -1
27 1
49 -1.11111111111111e-3
77 -1.66666666666667e-3
105 -9.09090909090909e-4
395 -11
402 -1
409 -2
416 -5
423 -6
430 -1
J148 11
27 -1
28 1
50 -1.11111111111111e-3
78 -1.66666666666667e-3
106 -9.09090909090909e-4
396 -11
403 -1
410 -2
417 -5
424 -6
431 -1
J149 11
28 -1
29 1
51 -1.11111111111111e-3
79 -1.66666666666667e-3
107 -9.09090909090909e-4
397 -11
404 -1
411 -2
418 -5
425 -6
432 -1
J150 11
29 -1
30 1
52 -1.11111111111111e-3
80 -1.66666666666667e-3
108 -9.09090909090909e-4
398 -11
405 -1
412 -2
419 -5
426 -6
433 -1
J151 11
30 -1
31 1
53 -1.11111111111111e-3
81 -1.66666666666667e-3
109 -9.09090909090909e-4
399 -11
406 -1
413 -2
420 -5
427 -6
434 -1
J152 11
24 -1
25 1
54 -2.5e-3
82 -2e-3
110 -2.22222222222222e-3
435 -9
442 -11
449 -5
456 -7
463 -6
470 -4
J153 11
25 -1
26 1
55 -2.5e-3
83 -2e-3
111 -2.22222222222222e-3
436 -9
443 -11
450 -5
457 -7
464 -6
471 -4
J154 11
26 -1
27 1
56 -2.5e-3
84 -2e-3
112 -2.22222222222222e-3
437 -9
444 -11
451 -5
458 -7
465 -6
472 -4
J155 11
27 -1
28 1
57 -2.5e-3
85 -2e-3
113 -2.22222222222222e-3
438 -9
445 -11
452 -5
459 -7
466 -6
473 -4
J156 11
28 -1
29 1
58 -2.5e-3
86 -2e-3
114 -2.22222222222222e-3
439 -9
446 -11
453 -5
460 -7
467 -6
474 -4
J157 11
29 -1
30 1
59 -2.5e-3
87 -2e-3
115 -2.22222222222222e-3
440 -9
447 -11
454 -5
461 -7
468 -6
475 -4
J158 11
30 -1
31 1
60 -2.5e-3
88 -2e-3
116 -2.22222222222222e-3
441 -9
448 -11
455 -5
462 -7
469 -6
476 -4
J159 2
33 1
225 -4.8e5
J160 2
34 1
226 -4.8e5
J161 2
35 1
227 -4.8e5
J162 2
36 1
228 -4.8e5
J163 2
37 1
229 -4.8e5
J164 2
38 1
230 -4.8e5
J165 2
39 1
231 -4.8e5
J166 2
40 1
232 -2.4e5
J167 2
41 1
233 -2.4e5
J168 2
42 1
234 -2.4e5
J169 2
43 1
235 -2.4e5
J170 2
44 1
236 -2.4e5
J171 2
45 1
237 -2.4e5
J172 2
46 1
238 -2.4e5
J173 2
47 1
239 -5.4e5
J174 2
48 1
240 -5.4e5
J175 2
49 1
241 -5.4e5
J176 2
50 1
242 -5.4e5
J177 2
51 1
243 -5.4e5
J178 2
52 1
244 -5.4e5
J179 2
53 1
245 -5.4e5
J180 2
54 1
246 -2.4e5
J181 2
55 1
247 -2.4e5
J182 2
56 1
248 -2.4e5
J183 2
57 1
249 -2.4e5
J184 2
58 1
250 -2.4e5
J185 2
59 1
251 -2.4e5
J186 2
60 1
252 -2.4e5
J187 2
61 1
253 -7.2e5
J188 2
62 1
254 -7.2e5
J189 2
63 1
255 -7.2e5
J190 2
64 1
256 -7.2e5
J191 2
65 1
257 -7.2e5
J192 2
66 1
258 -7.2e5
J193 2
67 1
259 -7.2e5
J194 2
68 1
260 -3e5
J195 2
69 1
261 -3e5
J196 2
70 1
262 -3e5
J197 2
71 1
263 -3e5
J198 2
72 1
264 -3e5
J199 2
73 1
265 -3e5
J200 2
74 1
266 -3e5
J201 2
75 1
267 -3.6e5
J202 2
76 1
268 -3.6e5
J203 2
77 1
269 -3.6e5
J204 2
78 1
270 -3.6e5
J205 2
79 1
271 -3.6e5
J206 2
80 1
272 -3.6e5
J207 2
81 1
273 -3.6e5
J208 2
82 1
274 -3e5
J209 2
83 1
275 -3e5
J210 2
84 1
276 -3e5
J211 2
85 1
277 -3e5
J212 2
86 1
278 -3e5
J213 2
87 1
279 -3e5
J214 2
88 1
280 -3e5
J215 2
89 1
281 -6e5
J216 2
90 1
282 -6e5
J217 2
91 1
283 -6e5
J218 2
92 1
284 -6e5
J219 2
93 1
285 -6e5
J220 2
94 1
286 -6e5
J221 2
95 1
287 -6e5
J222 2
96 1
288 -2.7e5
J223 2
97 1
289 -2.7e5
J224 2
98 1
290 -2.7e5
J225 2
99 1
291 -2.7e5
J226 2
100 1
292 -2.7e5
J227 2
101 1
293 -2.7e5
J228 2
102 1
294 -2.7e5
J229 2
103 1
295 -6.6e5
J230 2
104 1
296 -6.6e5
J231 2
105 1
297 -6.6e5
J232 2
106 1
298 -6.6e5
J233 2
107 1
299 -6.6e5
J234 2
108 1
300 -6.6e5
J235 2
109 1
301 -6.6e5
J236 2
110 1
302 -2.7e5
J237 2
111 1
303 -2.7e5
J238 2
112 1
304 -2.7e5
J239 2
113 1
305 -2.7e5
J240 2
114 1
306 -2.7e5
J241 2
115 1
307 -2.7e5
J242 2
116 1
308 -2.7e5
J243 2
21 1
31 -50
J244 2
22 1
31 -100
J245 2
23 1
31 -2.5e2
J246 2
201 1
222 -1
J247 2
202 1
222 -1
J248 2
203 1
222 -1
J249 2
204 1
222 -1
J250 2
205 1
222 -1
J251 2
206 1
222 -1
J252 2
207 1
222 -1
J253 2
208 1
223 -1
J254 2
209 1
223 -1
J255 2
210 1
223 -1
J256 2
211 1
223 -1
J257 2
212 1
223 -1
J258 2
213 1
223 -1
J259 2
214 1
223 -1
J260 2
215 1
224 -1
J261 2
216 1
224 -1
J262 2
217 1
224 -1
J263 2
218 1
224 -1
J264 2
219 1
224 -1
J265 2
220 1
224 -1
J266 2
221 1
224 -1
J267 84
309 1
310 1
311 1
312 1
313 1
314 1
315 1
316 1
317 1
318 1
319 1
320 1
321 1
322 1
323 1
324 1
325 1
326 1
327 1
328 1
329 1
330 1
331 1
332 1
333 1
334 1
335 1
336 1
337 1
338 1
339 1
340 1
341 1
342 1
343 1
344 1
345 1
346 1
347 1
348 1
349 1
350 1
351 1
352 1
353 1
354 1
355 1
356 1
357 1
358 1
359 1
360 1
361 1
362 1
363 1
364 1
365 1
366 1
367 1
368 1
369 1
370 1
371 1
372 1
373 1
374 1
375 1
376 1
377 1
378 1
379 1
380 1
381 1
382 1
383 1
384 1
385 1
386 1
387 1
388 1
389 1
390 1
391 1
392 1
J268 84
393 1
394 1
395 1
396 1
397 1
398 1
399 1
400 1
401 1
402 1
403 1
404 1
405 1
406 1
407 1
408 1
409 1
410 1
411 1
412 1
413 1
414 1
415 1
416 1
417 1
418 1
419 1
420 1
421 1
422 1
423 1
424 1
425 1
426 1
427 1
428 1
429 1
430 1
431 1
432 1
433 1
434 1
435 1
436 1
437 1
438 1
439 1
440 1
441 1
442 1
443 1
444 1
445 1
446 1
447 1
448 1
449 1
450 1
451 1
452 1
453 1
454 1
455 1
456 1
457 1
458 1
459 1
460 1
461 1
462 1
463 1
464 1
465 1
466 1
467 1
468 1
469 1
470 1
471 1
472 1
473 1
474 1
475 1
476 1
J269 2
225 1
232 1
G0 1
32 1
